
Gurobi 11.0.2 (linux64) logging started Tue 03 Dec 2024 09:00:58 AM CET

Set parameter LogFile to value "./res/knapPI_11_20_1000/knapPI_11_20_1000_95/grb.log"
Set parameter Presolve to value 0
Set parameter Aggregate to value 0
Set parameter Heuristics to value 0
Set parameter LPWarmStart to value 0
Set parameter NLPHeur to value 0
Set parameter PreDepRow to value 0
Set parameter PreDual to value 0
Set parameter RINS to value 0
Set parameter Symmetry to value 0
Set parameter NodeLimit to value 1
Set parameter Threads to value 1

Gurobi 11.0.2 (linux64) logging started Tue 03 Dec 2024 09:00:58 AM CET

Set parameter LogFile to value "./res/knapPI_11_20_1000/knapPI_11_20_1000_95/grb.log"
Set parameter NLPHeur to value 0
Set parameter LPWarmStart to value 0
Set parameter PreDepRow to value 0
Set parameter Symmetry to value 0
Set parameter Presolve to value 0
Gurobi Optimizer version 11.0.2 build v11.0.2rc0 (linux64 - "Pop!_OS 20.04 LTS")

CPU model: Intel(R) Core(TM) i7-8650U CPU @ 1.90GHz, instruction set [SSE2|AVX|AVX2]
Thread count: 4 physical cores, 4 logical processors, using up to 1 threads

Optimize a model with 1 rows, 20 columns and 20 nonzeros
Model fingerprint: 0x261856b0
Variable types: 0 continuous, 20 integer (20 binary)
Coefficient statistics:
  Matrix range     [8e+01, 8e+02]
  Objective range  [7e+01, 7e+02]
  Bounds range     [0e+00, 0e+00]
  RHS range        [8e+03, 8e+03]
Variable types: 0 continuous, 20 integer (20 binary)

Root relaxation: objective 6.571000e+03, 1 iterations, 0.00 seconds (0.00 work units)

    Nodes    |    Current Node    |     Objective Bounds      |     Work
 Expl Unexpl |  Obj  Depth IntInf | Incumbent    BestBd   Gap | It/Node Time

     0     0 6571.00000    0    1          - 6571.00000      -     -    0s
     0     0 6571.00000    0    2          - 6571.00000      -     -    0s
     0     0 6547.24138    0    2          - 6547.24138      -     -    0s
     0     0 6547.24138    0    2          - 6547.24138      -     -    0s
     0     0 6547.24138    0    2          - 6547.24138      -     -    0s
     0     0 6547.24138    0    2          - 6547.24138      -     -    0s
     0     0 6547.24138    0    4          - 6547.24138      -     -    0s
     0     0 6547.24138    0    5          - 6547.24138      -     -    0s
     0     0 6547.18182    0    4          - 6547.18182      -     -    0s
     0     0 6547.08000    0    5          - 6547.08000      -     -    0s
     0     0 6547.08000    0    6          - 6547.08000      -     -    0s
*    0     0               0    6547.0000000 6547.00000  0.00%     -    0s

Cutting planes:
  Cover: 1
  MIR: 3
  StrongCG: 3

Explored 1 nodes (21 simplex iterations) in 0.02 seconds (0.00 work units)
Thread count was 1 (of 4 available processors)

Solution count 1: 6547 

Optimal solution found (tolerance 1.00e-04)
Best objective 6.547000000000e+03, best bound 6.547000000000e+03, gap 0.0000%

User-callback calls 89, time in user-callback 0.00 sec
opt = true
obj = 6547.0
solved_time = 0.0164
